2 10
398 453 
0 47 37 65 55 87 72 2
1 93 83 70 60 15 66 2
2 99 89 42 32 54 97 1
3 70 60 78 68 19 76 2
4 29 19 100 90 54 46 1
5 19 9 28 18 58 26 1
6 102 92 49 39 99 2 2
7 63 53 40 30 25 2 1
8 55 45 98 88 5 7 1
9 21 11 97 87 74 57 2
